c instance by G2
c solution = 01000001111
c Known solution cost is 420 
p cnf 11 30
w 4 67 22 58 61 27 77 4 23 40 37
8 3 -10 0
-1 11 -2 0
7 2 -11 0
-8 -5 2 0
2 1 6 0
-7 -5 -1 0
-3 -7 11 0
7 -2 -1 0
-8 7 -6 0
10 -9 1 0
-4 9 11 0
-1 4 -6 0
11 -2 -3 0
-2 5 11 0
-4 11 1 0
-4 -7 -2 0
6 11 -10 0
3 -4 1 0
-3 -10 -9 0
1 -5 -10 0
-7 6 4 0
8 -11 3 0
7 2 -6 0
-10 -6 -2 0
9 3 1 0
11 -10 9 0
-5 -3 4 0
-8 2 7 0
2 7 4 0
-10 5 9 0
